(declare-const c_0 Real)
(declare-const c_1 Real)
(declare-const c_2 Real)
(declare-const c_3 Real)
(declare-const c_4 Real)
(declare-const c_5 Real)
(declare-const c_6 Real)
(declare-const c_7 Real)
(declare-const c_8 Real)
(declare-const c_9 Real)
(declare-const c_10 Real)
(declare-const c_11 Real)
(declare-const c_12 Real)
(declare-const c_13 Real)
(declare-const c_14 Real)
(declare-const s_0 Real)
(declare-const s_1 Real)
(declare-const s_2 Real)
(declare-const s_3 Real)
(declare-const s_4 Real)
(declare-const s_5 Real)
(declare-const s_6 Real)
(declare-const s_7 Real)
(declare-const s_8 Real)
(declare-const s_9 Real)
(declare-const s_10 Real)
(declare-const s_11 Real)
(declare-const s_12 Real)
(declare-const s_13 Real)
(declare-const s_14 Real)
(assert (forall ((res Real) (min Real) (x Real) (y Real) ) (=> (and (>= (+ (* 1024 1) (* 1 res ) ) 0) (>= (+ (* 1023 1) (* (- 1) res ) ) 0) (>= (+ (* 1024 1) (* 1 min ) ) 0) (>= (+ (* 1023 1) (* (- 1) min ) ) 0) (>= (+ (* 1024 1) (* 1 x ) ) 0) (>= (+ (* 1023 1) (* (- 1) x ) ) 0) (>= (+ (* 1024 1) (* 1 y ) ) 0) (>= (+ (* 1023 1) (* (- 1) y ) ) 0) ) (>= (+ (* 1 min s_1 ) (* 1 res s_2 ) (* 1 s_0 ) (* 1 s_3 x ) (* 1 s_4 y ) ) 0) )))
(assert (forall ((res Real) (min Real) (x Real) (y Real) ) (=> (and (>= (+ (* 1024 1) (* 1 res ) ) 0) (>= (+ (* 1023 1) (* (- 1) res ) ) 0) (>= (+ (* 1024 1) (* 1 min ) ) 0) (>= (+ (* 1023 1) (* (- 1) min ) ) 0) (>= (+ (* 1024 1) (* 1 x ) ) 0) (>= (+ (* 1023 1) (* (- 1) x ) ) 0) (>= (+ (* 1024 1) (* 1 y ) ) 0) (>= (+ (* 1023 1) (* (- 1) y ) ) 0) ) (>= (+ (* 1 c_0 ) (* 1 c_1 min ) (* 1 c_2 res ) (* 1 c_3 x ) (* 1 c_4 y ) ) 0) )))
(assert (forall ((res Real) (min Real) (x Real) (y Real) ) (=> (and (>= (+ (* (- 1) 1) (* (- 1) x ) (* 1 y ) ) 0) (>= (+ (* 1023 1) (* (- 1) y ) ) 0) (>= (+ (* 1024 1) (* 1 y ) ) 0) (>= (+ (* 1023 1) (* (- 1) x ) ) 0) (>= (+ (* 1024 1) (* 1 x ) ) 0) (>= (+ (* 1023 1) (* (- 1) min ) ) 0) (>= (+ (* 1024 1) (* 1 min ) ) 0) (>= (+ (* 1023 1) (* (- 1) res ) ) 0) (>= (+ (* 1024 1) (* 1 res ) ) 0) (>= (+ (* 1 min s_1 ) (* 1 res s_2 ) (* 1 s_0 ) (* 1 s_3 x ) (* 1 s_4 y ) ) 0) ) (>= (+ (* 1 s_5 ) (* 1 s_6 x ) (* 1 s_8 x ) (* 1 s_9 y ) ) 0) )))
(assert (forall ((res Real) (min Real) (x Real) (y Real) ) (=> (and (>= (+ (* (- 1) 1) (* (- 1) x ) (* 1 y ) ) 0) (>= (+ (* 1023 1) (* (- 1) y ) ) 0) (>= (+ (* 1024 1) (* 1 y ) ) 0) (>= (+ (* 1023 1) (* (- 1) x ) ) 0) (>= (+ (* 1024 1) (* 1 x ) ) 0) (>= (+ (* 1023 1) (* (- 1) min ) ) 0) (>= (+ (* 1024 1) (* 1 min ) ) 0) (>= (+ (* 1023 1) (* (- 1) res ) ) 0) (>= (+ (* 1024 1) (* 1 res ) ) 0) (>= (+ (* 1 min s_1 ) (* 1 res s_2 ) (* 1 s_0 ) (* 1 s_3 x ) (* 1 s_4 y ) ) 0) ) (>= (+ (* 1 c_5 ) (* 1 c_6 x ) (* 1 c_8 x ) (* 1 c_9 y ) ) 0) )))
(assert (forall ((res Real) (min Real) (x Real) (y Real) ) (=> (and (>= (+ (* (- 1) 1) (* (- 1) x ) (* 1 y ) ) 0) (>= (+ (* 1023 1) (* (- 1) y ) ) 0) (>= (+ (* 1024 1) (* 1 y ) ) 0) (>= (+ (* 1023 1) (* (- 1) x ) ) 0) (>= (+ (* 1024 1) (* 1 x ) ) 0) (>= (+ (* 1023 1) (* (- 1) min ) ) 0) (>= (+ (* 1024 1) (* 1 min ) ) 0) (>= (+ (* 1023 1) (* (- 1) res ) ) 0) (>= (+ (* 1024 1) (* 1 res ) ) 0) (>= (+ (* 1 min s_1 ) (* 1 res s_2 ) (* 1 s_0 ) (* 1 s_3 x ) (* 1 s_4 y ) ) 0) ) (>= (+ (* (- 1) 1) (* 1 c_0 ) (* 1 c_1 min ) (* 1 c_2 res ) (* 1 c_3 x ) (* 1 c_4 y ) (* (- 1) c_5 ) (* (- 1) c_6 x ) (* (- 1) c_8 x ) (* (- 1) c_9 y ) ) 0) )))
(assert (forall ((res Real) (min Real) (x Real) (y Real) ) (=> (and (>= (+ (* 1 x ) (* (- 1) y ) ) 0) (>= (+ (* 1023 1) (* (- 1) y ) ) 0) (>= (+ (* 1024 1) (* 1 y ) ) 0) (>= (+ (* 1023 1) (* (- 1) x ) ) 0) (>= (+ (* 1024 1) (* 1 x ) ) 0) (>= (+ (* 1023 1) (* (- 1) min ) ) 0) (>= (+ (* 1024 1) (* 1 min ) ) 0) (>= (+ (* 1023 1) (* (- 1) res ) ) 0) (>= (+ (* 1024 1) (* 1 res ) ) 0) (>= (+ (* 1 min s_1 ) (* 1 res s_2 ) (* 1 s_0 ) (* 1 s_3 x ) (* 1 s_4 y ) ) 0) ) (>= (+ (* 1 s_5 ) (* 1 s_6 y ) (* 1 s_8 x ) (* 1 s_9 y ) ) 0) )))
(assert (forall ((res Real) (min Real) (x Real) (y Real) ) (=> (and (>= (+ (* 1 x ) (* (- 1) y ) ) 0) (>= (+ (* 1023 1) (* (- 1) y ) ) 0) (>= (+ (* 1024 1) (* 1 y ) ) 0) (>= (+ (* 1023 1) (* (- 1) x ) ) 0) (>= (+ (* 1024 1) (* 1 x ) ) 0) (>= (+ (* 1023 1) (* (- 1) min ) ) 0) (>= (+ (* 1024 1) (* 1 min ) ) 0) (>= (+ (* 1023 1) (* (- 1) res ) ) 0) (>= (+ (* 1024 1) (* 1 res ) ) 0) (>= (+ (* 1 min s_1 ) (* 1 res s_2 ) (* 1 s_0 ) (* 1 s_3 x ) (* 1 s_4 y ) ) 0) ) (>= (+ (* 1 c_5 ) (* 1 c_6 y ) (* 1 c_8 x ) (* 1 c_9 y ) ) 0) )))
(assert (forall ((res Real) (min Real) (x Real) (y Real) ) (=> (and (>= (+ (* 1 x ) (* (- 1) y ) ) 0) (>= (+ (* 1023 1) (* (- 1) y ) ) 0) (>= (+ (* 1024 1) (* 1 y ) ) 0) (>= (+ (* 1023 1) (* (- 1) x ) ) 0) (>= (+ (* 1024 1) (* 1 x ) ) 0) (>= (+ (* 1023 1) (* (- 1) min ) ) 0) (>= (+ (* 1024 1) (* 1 min ) ) 0) (>= (+ (* 1023 1) (* (- 1) res ) ) 0) (>= (+ (* 1024 1) (* 1 res ) ) 0) (>= (+ (* 1 min s_1 ) (* 1 res s_2 ) (* 1 s_0 ) (* 1 s_3 x ) (* 1 s_4 y ) ) 0) ) (>= (+ (* (- 1) 1) (* 1 c_0 ) (* 1 c_1 min ) (* 1 c_2 res ) (* 1 c_3 x ) (* 1 c_4 y ) (* (- 1) c_5 ) (* (- 1) c_6 y ) (* (- 1) c_8 x ) (* (- 1) c_9 y ) ) 0) )))
(assert (forall ((res Real) (min Real) (x Real) (y Real) ) (=> (and (>= (+ (* (- 1) x ) (* 1 y ) ) 0) (>= (+ (* (- 1) min ) (* 1 y ) ) 0) (>= (+ (* 1 min ) (* (- 1) y ) ) 0) (>= (+ (* (- 1) min ) (* 1 x ) ) 0) (>= (+ (* 1023 1) (* (- 1) x ) ) 0) (>= (+ (* 1024 1) (* (- 1) res ) (* 1 y ) ) 0) (>= (+ (* 1024 1) (* 1 min ) ) 0) (>= (* 1 res ) 0) (>= (+ (* 1023 1) (* 1 min ) (* 1 res ) (* (- 1) x ) (* (- 1) y ) ) 0) (>= (+ (* 1 min s_6 ) (* 1 res s_7 ) (* 1 s_5 ) (* 1 s_8 x ) (* 1 s_9 y ) ) 0) ) (>= (+ (* 1 res s_7 ) (* 1 s_5 ) (* 1 s_6 x ) (* 1 s_7 ) (* 1 s_8 x ) (* 1 s_9 ) (* 1 s_9 y ) ) 0) )))
(assert (forall ((res Real) (min Real) (x Real) (y Real) ) (=> (and (>= (+ (* (- 1) x ) (* 1 y ) ) 0) (>= (+ (* (- 1) min ) (* 1 y ) ) 0) (>= (+ (* 1 min ) (* (- 1) y ) ) 0) (>= (+ (* (- 1) min ) (* 1 x ) ) 0) (>= (+ (* 1023 1) (* (- 1) x ) ) 0) (>= (+ (* 1024 1) (* (- 1) res ) (* 1 y ) ) 0) (>= (+ (* 1024 1) (* 1 min ) ) 0) (>= (* 1 res ) 0) (>= (+ (* 1023 1) (* 1 min ) (* 1 res ) (* (- 1) x ) (* (- 1) y ) ) 0) (>= (+ (* 1 min s_6 ) (* 1 res s_7 ) (* 1 s_5 ) (* 1 s_8 x ) (* 1 s_9 y ) ) 0) ) (>= (+ (* 1 c_5 ) (* 1 c_6 x ) (* 1 c_7 ) (* 1 c_7 res ) (* 1 c_8 x ) (* 1 c_9 ) (* 1 c_9 y ) ) 0) )))
(assert (forall ((res Real) (min Real) (x Real) (y Real) ) (=> (and (>= (+ (* (- 1) x ) (* 1 y ) ) 0) (>= (+ (* (- 1) min ) (* 1 y ) ) 0) (>= (+ (* 1 min ) (* (- 1) y ) ) 0) (>= (+ (* (- 1) min ) (* 1 x ) ) 0) (>= (+ (* 1023 1) (* (- 1) x ) ) 0) (>= (+ (* 1024 1) (* (- 1) res ) (* 1 y ) ) 0) (>= (+ (* 1024 1) (* 1 min ) ) 0) (>= (* 1 res ) 0) (>= (+ (* 1023 1) (* 1 min ) (* 1 res ) (* (- 1) x ) (* (- 1) y ) ) 0) (>= (+ (* 1 min s_6 ) (* 1 res s_7 ) (* 1 s_5 ) (* 1 s_8 x ) (* 1 s_9 y ) ) 0) ) (>= (+ (* (- 1) 1) (* 1 c_6 min ) (* (- 1) c_6 x ) (* (- 1) c_7 ) (* (- 1) c_9 ) ) 0) )))
(assert (forall ((res Real) (min Real) (x Real) (y Real) ) (=> (and (>= (+ (* (- 1) 1) (* 1 x ) (* (- 1) y ) ) 0) (>= (+ (* (- 1) min ) (* 1 y ) ) 0) (>= (+ (* 1 min ) (* (- 1) y ) ) 0) (>= (+ (* (- 1) min ) (* 1 x ) ) 0) (>= (+ (* 1023 1) (* (- 1) x ) ) 0) (>= (+ (* 1024 1) (* (- 1) res ) (* 1 y ) ) 0) (>= (+ (* 1024 1) (* 1 min ) ) 0) (>= (* 1 res ) 0) (>= (+ (* 1023 1) (* 1 min ) (* 1 res ) (* (- 1) x ) (* (- 1) y ) ) 0) (>= (+ (* 1 min s_6 ) (* 1 res s_7 ) (* 1 s_5 ) (* 1 s_8 x ) (* 1 s_9 y ) ) 0) ) (>= (+ (* 1 res s_7 ) (* 1 s_5 ) (* 1 s_6 ) (* 1 s_6 y ) (* 1 s_7 ) (* 1 s_8 x ) (* 1 s_9 ) (* 1 s_9 y ) ) 0) )))
(assert (forall ((res Real) (min Real) (x Real) (y Real) ) (=> (and (>= (+ (* (- 1) 1) (* 1 x ) (* (- 1) y ) ) 0) (>= (+ (* (- 1) min ) (* 1 y ) ) 0) (>= (+ (* 1 min ) (* (- 1) y ) ) 0) (>= (+ (* (- 1) min ) (* 1 x ) ) 0) (>= (+ (* 1023 1) (* (- 1) x ) ) 0) (>= (+ (* 1024 1) (* (- 1) res ) (* 1 y ) ) 0) (>= (+ (* 1024 1) (* 1 min ) ) 0) (>= (* 1 res ) 0) (>= (+ (* 1023 1) (* 1 min ) (* 1 res ) (* (- 1) x ) (* (- 1) y ) ) 0) (>= (+ (* 1 min s_6 ) (* 1 res s_7 ) (* 1 s_5 ) (* 1 s_8 x ) (* 1 s_9 y ) ) 0) ) (>= (+ (* 1 c_5 ) (* 1 c_6 ) (* 1 c_6 y ) (* 1 c_7 ) (* 1 c_7 res ) (* 1 c_8 x ) (* 1 c_9 ) (* 1 c_9 y ) ) 0) )))
(assert (forall ((res Real) (min Real) (x Real) (y Real) ) (=> (and (>= (+ (* (- 1) 1) (* 1 x ) (* (- 1) y ) ) 0) (>= (+ (* (- 1) min ) (* 1 y ) ) 0) (>= (+ (* 1 min ) (* (- 1) y ) ) 0) (>= (+ (* (- 1) min ) (* 1 x ) ) 0) (>= (+ (* 1023 1) (* (- 1) x ) ) 0) (>= (+ (* 1024 1) (* (- 1) res ) (* 1 y ) ) 0) (>= (+ (* 1024 1) (* 1 min ) ) 0) (>= (* 1 res ) 0) (>= (+ (* 1023 1) (* 1 min ) (* 1 res ) (* (- 1) x ) (* (- 1) y ) ) 0) (>= (+ (* 1 min s_6 ) (* 1 res s_7 ) (* 1 s_5 ) (* 1 s_8 x ) (* 1 s_9 y ) ) 0) ) (>= (+ (* (- 1) 1) (* (- 1) c_6 ) (* 1 c_6 min ) (* (- 1) c_6 y ) (* (- 1) c_7 ) (* (- 1) c_9 ) ) 0) )))
(assert (forall ((res Real) (min Real) (x Real) (y Real) ) (=> (and (>= (+ (* (- 1) 1) (* 1 min ) (* (- 1) y ) ) 0) (>= (+ (* (- 1) min ) (* 1 x ) ) 0) (>= (+ (* 1023 1) (* (- 1) x ) ) 0) (>= (+ (* 1024 1) (* (- 1) res ) (* 1 y ) ) 0) (>= (+ (* (- 1) min ) (* 1 y ) ) 0) (>= (+ (* 1024 1) (* 1 min ) ) 0) (>= (* 1 res ) 0) (>= (+ (* 1023 1) (* 1 min ) (* 1 res ) (* (- 1) x ) (* (- 1) y ) ) 0) (>= (+ (* 1 min s_6 ) (* 1 res s_7 ) (* 1 s_5 ) (* 1 s_8 x ) (* 1 s_9 y ) ) 0) ) (>= (+ (* 1 min s_11 ) (* 1 res s_12 ) (* 1 s_10 ) (* 1 s_13 x ) (* 1 s_14 y ) ) 0) )))
(assert (forall ((res Real) (min Real) (x Real) (y Real) ) (=> (and (>= (+ (* (- 1) 1) (* 1 min ) (* (- 1) y ) ) 0) (>= (+ (* (- 1) min ) (* 1 x ) ) 0) (>= (+ (* 1023 1) (* (- 1) x ) ) 0) (>= (+ (* 1024 1) (* (- 1) res ) (* 1 y ) ) 0) (>= (+ (* (- 1) min ) (* 1 y ) ) 0) (>= (+ (* 1024 1) (* 1 min ) ) 0) (>= (* 1 res ) 0) (>= (+ (* 1023 1) (* 1 min ) (* 1 res ) (* (- 1) x ) (* (- 1) y ) ) 0) (>= (+ (* 1 min s_6 ) (* 1 res s_7 ) (* 1 s_5 ) (* 1 s_8 x ) (* 1 s_9 y ) ) 0) ) (>= (+ (* 1 c_10 ) (* 1 c_11 min ) (* 1 c_12 res ) (* 1 c_13 x ) (* 1 c_14 y ) ) 0) )))
(assert (forall ((res Real) (min Real) (x Real) (y Real) ) (=> (and (>= (+ (* (- 1) 1) (* (- 1) min ) (* 1 y ) ) 0) (>= (+ (* (- 1) min ) (* 1 x ) ) 0) (>= (+ (* 1023 1) (* (- 1) x ) ) 0) (>= (+ (* 1024 1) (* (- 1) res ) (* 1 y ) ) 0) (>= (+ (* (- 1) min ) (* 1 y ) ) 0) (>= (+ (* 1024 1) (* 1 min ) ) 0) (>= (* 1 res ) 0) (>= (+ (* 1023 1) (* 1 min ) (* 1 res ) (* (- 1) x ) (* (- 1) y ) ) 0) (>= (+ (* 1 min s_6 ) (* 1 res s_7 ) (* 1 s_5 ) (* 1 s_8 x ) (* 1 s_9 y ) ) 0) ) (>= (+ (* 1 min s_11 ) (* 1 res s_12 ) (* 1 s_10 ) (* 1 s_13 x ) (* 1 s_14 y ) ) 0) )))
(assert (forall ((res Real) (min Real) (x Real) (y Real) ) (=> (and (>= (+ (* (- 1) 1) (* (- 1) min ) (* 1 y ) ) 0) (>= (+ (* (- 1) min ) (* 1 x ) ) 0) (>= (+ (* 1023 1) (* (- 1) x ) ) 0) (>= (+ (* 1024 1) (* (- 1) res ) (* 1 y ) ) 0) (>= (+ (* (- 1) min ) (* 1 y ) ) 0) (>= (+ (* 1024 1) (* 1 min ) ) 0) (>= (* 1 res ) 0) (>= (+ (* 1023 1) (* 1 min ) (* 1 res ) (* (- 1) x ) (* (- 1) y ) ) 0) (>= (+ (* 1 min s_6 ) (* 1 res s_7 ) (* 1 s_5 ) (* 1 s_8 x ) (* 1 s_9 y ) ) 0) ) (>= (+ (* 1 c_10 ) (* 1 c_11 min ) (* 1 c_12 res ) (* 1 c_13 x ) (* 1 c_14 y ) ) 0) )))

(check-sat)
(get-model)
